NAME : brg180.tour
COMMENT : Optimum tour for brg180.tsp (Length 1950)
TYPE : TOUR
DIMENSION : 180
TOUR_SECTION  
99
100
101
102
103
127
126
125
124
123
122
121
132
131
130
129
128
162
163
164
165
166
167
168
157
158
159
160
161
17
16
15
14
13
24
23
22
21
20
19
18
179
178
177
176
175
174
173
172
171
170
169
180
65
64
63
62
61
72
71
70
69
68
67
66
29
28
27
26
25
36
35
34
33
32
31
30
90
91
92
93
94
95
96
85
86
87
88
89
138
139
140
141
142
143
144
133
134
135
136
137
2
3
4
5
6
7
8
9
10
11
12
1
73
84
83
82
81
80
79
78
77
76
75
74
48
37
38
39
40
41
42
43
44
45
46
47
110
111
112
113
114
115
116
117
118
119
120
109
52
53
54
55
56
57
58
59
60
49
50
51
155
154
153
152
151
150
149
148
147
146
145
156
104
105
106
107
108
97
98
-1
EOF
